(set-info :smt-lib-version 2.6)
(set-logic UFLIA)
(set-info :source |
Generated by: Pierre Carbonnelle
Generated on: 2026-04-28
Generator: https://github.com/xmt-lib/benchmarks
Application: test of grounders
Target solver: Z3
Publications: https://arxiv.org/abs/2602.19102
Time limit: 300
Order-Preserving Pattern Matching
From the DIRT benchmark used to evaluate grounders
|)
(set-info :license "https://creativecommons.org/licenses/by/4.0/")
(set-info :category "crafted")
(set-info :status sat)

(define-fun number ((x Int)) Bool (<= 1 x 200))
(define-fun smallnumber ((x Int)) Bool (<= 1 x 20))

(define-fun pf ((x Int)) Int (ite (= x 1) 9
  (ite (= x 2) 20
  (ite (= x 3) 10
  (ite (= x 4) 1
  (ite (= x 5) 5
  (ite (= x 6) 3
  (ite (= x 7) 17
  (ite (= x 8) 18
  (ite (= x 9) 8
  (ite (= x 10) 11
  (ite (= x 11) 15
  (ite (= x 12) 2
  (ite (= x 13) 13
  (ite (= x 14) 16
  (ite (= x 15) 19
  (ite (= x 16) 6
  (ite (= x 17) 7
  (ite (= x 18) 4
  (ite (= x 19) 14
  (ite (= x 20) 12
  0)))))))))))))))))))))
(define-fun tf ((x Int)) Int (ite (= x 1) 91
  (ite (= x 2) 48
  (ite (= x 3) 155
  (ite (= x 4) 131
  (ite (= x 5) 192
  (ite (= x 6) 130
  (ite (= x 7) 198
  (ite (= x 8) 76
  (ite (= x 9) 196
  (ite (= x 10) 57
  (ite (= x 11) 39
  (ite (= x 12) 187
  (ite (= x 13) 96
  (ite (= x 14) 169
  (ite (= x 15) 12
  (ite (= x 16) 199
  (ite (= x 17) 32
  (ite (= x 18) 193
  (ite (= x 19) 158
  (ite (= x 20) 108
  (ite (= x 21) 99
  (ite (= x 22) 180
  (ite (= x 23) 194
  (ite (= x 24) 46
  (ite (= x 25) 52
  (ite (= x 26) 17
  (ite (= x 27) 160
  (ite (= x 28) 69
  (ite (= x 29) 135
  (ite (= x 30) 22
  (ite (= x 31) 107
  (ite (= x 32) 62
  (ite (= x 33) 55
  (ite (= x 34) 197
  (ite (= x 35) 71
  (ite (= x 36) 23
  (ite (= x 37) 167
  (ite (= x 38) 101
  (ite (= x 39) 73
  (ite (= x 40) 40
  (ite (= x 41) 152
  (ite (= x 42) 137
  (ite (= x 43) 157
  (ite (= x 44) 143
  (ite (= x 45) 150
  (ite (= x 46) 114
  (ite (= x 47) 11
  (ite (= x 48) 119
  (ite (= x 49) 145
  (ite (= x 50) 36
  (ite (= x 51) 125
  (ite (= x 52) 136
  (ite (= x 53) 35
  (ite (= x 54) 184
  (ite (= x 55) 195
  (ite (= x 56) 27
  (ite (= x 57) 191
  (ite (= x 58) 134
  (ite (= x 59) 18
  (ite (= x 60) 42
  (ite (= x 61) 181
  (ite (= x 62) 104
  (ite (= x 63) 146
  (ite (= x 64) 183
  (ite (= x 65) 113
  (ite (= x 66) 44
  (ite (= x 67) 133
  (ite (= x 68) 174
  (ite (= x 69) 77
  (ite (= x 70) 100
  (ite (= x 71) 5
  (ite (= x 72) 153
  (ite (= x 73) 164
  (ite (= x 74) 132
  (ite (= x 75) 65
  (ite (= x 76) 70
  (ite (= x 77) 58
  (ite (= x 78) 171
  (ite (= x 79) 124
  (ite (= x 80) 49
  (ite (= x 81) 149
  (ite (= x 82) 179
  (ite (= x 83) 120
  (ite (= x 84) 43
  (ite (= x 85) 176
  (ite (= x 86) 128
  (ite (= x 87) 200
  (ite (= x 88) 166
  (ite (= x 89) 61
  (ite (= x 90) 115
  (ite (= x 91) 93
  (ite (= x 92) 45
  (ite (= x 93) 87
  (ite (= x 94) 33
  (ite (= x 95) 122
  (ite (= x 96) 112
  (ite (= x 97) 68
  (ite (= x 98) 74
  (ite (= x 99) 81
  (ite (= x 100) 123
  (ite (= x 101) 163
  (ite (= x 102) 34
  (ite (= x 103) 106
  (ite (= x 104) 30
  (ite (= x 105) 19
  (ite (= x 106) 84
  (ite (= x 107) 20
  (ite (= x 108) 140
  (ite (= x 109) 186
  (ite (= x 110) 41
  (ite (= x 111) 86
  (ite (= x 112) 25
  (ite (= x 113) 110
  (ite (= x 114) 175
  (ite (= x 115) 51
  (ite (= x 116) 144
  (ite (= x 117) 159
  (ite (= x 118) 80
  (ite (= x 119) 54
  (ite (= x 120) 162
  (ite (= x 121) 1
  (ite (= x 122) 141
  (ite (= x 123) 147
  (ite (= x 124) 29
  (ite (= x 125) 63
  (ite (= x 126) 161
  (ite (= x 127) 85
  (ite (= x 128) 7
  (ite (= x 129) 168
  (ite (= x 130) 13
  (ite (= x 131) 129
  (ite (= x 132) 24
  (ite (= x 133) 139
  (ite (= x 134) 90
  (ite (= x 135) 2
  (ite (= x 136) 83
  (ite (= x 137) 92
  (ite (= x 138) 154
  (ite (= x 139) 116
  (ite (= x 140) 178
  (ite (= x 141) 4
  (ite (= x 142) 156
  (ite (= x 143) 14
  (ite (= x 144) 105
  (ite (= x 145) 50
  (ite (= x 146) 72
  (ite (= x 147) 95
  (ite (= x 148) 56
  (ite (= x 149) 79
  (ite (= x 150) 67
  (ite (= x 151) 177
  (ite (= x 152) 102
  (ite (= x 153) 38
  (ite (= x 154) 37
  (ite (= x 155) 3
  (ite (= x 156) 53
  (ite (= x 157) 165
  (ite (= x 158) 148
  (ite (= x 159) 60
  (ite (= x 160) 28
  (ite (= x 161) 78
  (ite (= x 162) 64
  (ite (= x 163) 21
  (ite (= x 164) 188
  (ite (= x 165) 142
  (ite (= x 166) 47
  (ite (= x 167) 182
  (ite (= x 168) 82
  (ite (= x 169) 9
  (ite (= x 170) 98
  (ite (= x 171) 151
  (ite (= x 172) 8
  (ite (= x 173) 190
  (ite (= x 174) 118
  (ite (= x 175) 75
  (ite (= x 176) 172
  (ite (= x 177) 16
  (ite (= x 178) 173
  (ite (= x 179) 15
  (ite (= x 180) 66
  (ite (= x 181) 138
  (ite (= x 182) 121
  (ite (= x 183) 26
  (ite (= x 184) 103
  (ite (= x 185) 127
  (ite (= x 186) 59
  (ite (= x 187) 97
  (ite (= x 188) 189
  (ite (= x 189) 31
  (ite (= x 190) 185
  (ite (= x 191) 10
  (ite (= x 192) 111
  (ite (= x 193) 117
  (ite (= x 194) 6
  (ite (= x 195) 170
  (ite (= x 196) 94
  (ite (= x 197) 109
  (ite (= x 198) 89
  (ite (= x 199) 126
  (ite (= x 200) 88
  0)))))))))))))))))))))))))))))))))))))))))))))))))))))))))))))))))))))))))))))))))))))))))))))))))))))))))))))))))))))))))))))))))))))))))))))))))))))))))))))))))))))))))))))))))))))))))))))))))))))))))

(declare-fun map (Int) Int)

; co-domain
(assert (forall ((x Int)) (=> (smallnumber x) (number (map x)))))

; monotonicity of mapping
(assert (forall ((x1 Int) (x2 Int))
            (=> (and (smallnumber x1) (smallnumber x2) (< x1 x2))
                (< (map x1) (map x2)))))

; order preservation (includes equality)
(assert (forall ((x1 Int) (x2 Int))
            (=> (and (smallnumber x1) (smallnumber x2) (<= (pf x1) (pf x2)))
                (<= (tf (map x1)) (tf (map x2))))))

(check-sat)
(exit)
